NAME : 19.76983.tour
COMMENT : Length = 76983
COMMENT : Found by LKH-3 [Keld Helsgaun] Thu Jun 19 18:16:31 2025
TYPE : TOUR
DIMENSION : 100
TOUR_SECTION
1
14
99
76
43
60
59
38
27
81
94
53
55
50
71
92
36
80
17
87
28
77
3
21
66
69
82
63
90
89
58
8
57
44
86
19
46
13
29
34
98
4
67
95
72
85
22
49
64
51
31
91
15
97
75
37
35
93
23
5
78
45
96
84
61
32
47
42
40
20
73
30
52
39
2
33
10
62
6
54
100
79
7
68
48
74
26
12
16
18
88
11
56
9
70
41
83
24
25
65
-1
EOF
